(declare-const p1 Real)
(declare-const p4 Real)
(declare-const fee_bl Real)
(declare-const p3 Real)
(declare-const p6 Real)
(declare-const income Real)
(declare-const p2 Real)
(declare-const p5 Real)
(assert (= p1 (* 0.015 (ite (> income 8000) 8000 income))))
(assert (= p2 (ite (> income 8000) (* 0.032 (- (ite (> income 25000) 25000 income) 8000)) 0)))
(assert (= p3 (ite (> income 25000) (* 0.043 (- (ite (> income 50000) 50000 income) 25000)) 0)))
(assert (= p4 (ite (> income 50000) (* 0.047 (- (ite (> income 100000) 100000 income) 50000)) 0)))
(assert (= p5 (ite (> income 100000) (* 0.049 (- (ite (> income 315000) 315000 income) 100000)) 0)))
(assert (= p6 (ite (> income 315000) (* 0.059 (- income 315000)) 0)))
(assert (= fee_bl (+ (+ (+ (+ (+ p1 p2) p3) p4) p5) p6)))